10 5 1.15
5 1 2 72 1 1 87 1 5 95 1 3 66 2 4 60 3 60 
5 1 5 5 1 4 35 1 1 48 1 3 39 1 2 54 
5 1 2 46 1 4 20 2 3 21 1 21 1 1 97 1 5 55 
5 1 1 59 2 4 19 1 19 1 5 46 1 2 34 1 3 37 
5 1 5 23 2 3 73 5 73 1 4 25 1 2 24 1 1 28 
5 1 4 28 1 1 45 1 5 5 2 2 78 4 78 1 3 83 
5 1 1 53 2 4 71 3 71 1 2 37 1 5 29 1 3 12 
5 1 5 12 1 3 87 1 4 33 1 2 55 1 1 38 
5 1 3 49 1 4 83 2 2 40 1 40 1 1 48 1 5 7 
5 2 3 65 1 65 1 4 17 2 1 90 4 90 1 5 27 2 2 23 3 23 
2 92 92 219 55 398 535 
3 3 37 94 3 168 225 15 298 357 
4 52 39 94 51 171 228 8 308 357 8 448 483 
2 84 52 148 99 231 369 
2 2 60 111 61 225 288 
